(set-logic ALL)
(declare-var conf_0 (BitVec 32))
(declare-var conf_0! (BitVec 32))
(declare-var n (BitVec 32))
(declare-var n! (BitVec 32))
(declare-var x (BitVec 32))
(declare-var x! (BitVec 32))
(declare-var y (BitVec 32))
(declare-var y! (BitVec 32))
(declare-var conf_0_0 (BitVec 32))
(declare-var conf_0_0! (BitVec 32))
(declare-var conf_0_1 (BitVec 32))
(declare-var conf_0_1! (BitVec 32))
(declare-var conf_0_2 (BitVec 32))
(declare-var conf_0_2! (BitVec 32))
(declare-var conf_0_3 (BitVec 32))
(declare-var conf_0_3! (BitVec 32))
(declare-var n_0 (BitVec 32))
(declare-var n_0! (BitVec 32))
(declare-var x_0 (BitVec 32))
(declare-var x_0! (BitVec 32))
(declare-var x_1 (BitVec 32))
(declare-var x_1! (BitVec 32))
(declare-var x_2 (BitVec 32))
(declare-var x_2! (BitVec 32))
(declare-var x_3 (BitVec 32))
(declare-var x_3! (BitVec 32))
(declare-var y_0 (BitVec 32))
(declare-var y_0! (BitVec 32))
(declare-var y_1 (BitVec 32))
(declare-var y_1! (BitVec 32))
(declare-var y_2 (BitVec 32))
(declare-var y_2! (BitVec 32))
(declare-var y_3 (BitVec 32))
(declare-var y_3! (BitVec 32))
(synth-fun inv-f((parameter0 (BitVec 32))(parameter1 (BitVec 32))(parameter2 (BitVec 32))(parameter3 (BitVec 32))(parameter4 (BitVec 32))(parameter5 (BitVec 32))(parameter6 (BitVec 32))(parameter7 (BitVec 32))(parameter8 (BitVec 32))(parameter9 (BitVec 32))(parameter10 (BitVec 32))(parameter11 (BitVec 32))(parameter12 (BitVec 32))(parameter13 (BitVec 32))(parameter14 (BitVec 32))(parameter15 (BitVec 32))(parameter16 (BitVec 32)))Bool) 
(constraint (=> (and (and (and (and (and (and (and (= conf_0 conf_0_0) (= n n_0) ) (= x x_1) ) (= y y_1) ) (= conf_0_0 (_ bv0 32)) ) (bvuge n_0 (_ bv0 32)) ) (= x_1 n_0) ) (= y_1 (_ bv0 32)) )(inv-f conf_0 n x y conf_0_0 conf_0_1 conf_0_2 conf_0_3 n_0 x_0 x_1 x_2 x_3 y_0 y_1 y_2 y_3 )))
(constraint (=> (and (inv-f conf_0 n x y conf_0_0 conf_0_1 conf_0_2 conf_0_3 n_0 x_0 x_1 x_2 x_3 y_0 y_1 y_2 y_3 ) (or (and (and (and (and (and (and (and (and (= conf_0_1 conf_0) (= x_2 x) ) (= y_2 y) ) (= conf_0_1 conf_0!) ) (= x_2 x!) ) (= y_2 y!) ) (= conf_0 conf_0!) ) (= n n!) ) (= y y!) ) (and (and (and (and (and (and (and (and (and (and (and (and (= conf_0_1 conf_0) (= x_2 x) ) (= y_2 y) ) (bvugt x_2 (_ bv0 32)) ) (= y_3 (bvadd y_2 (_ bv1 32))) ) (= conf_0_2 (_ bv527 32)) ) (= x_3 (bvsub x_2 (_ bv1 32))) ) (= conf_0_3 (bvadd conf_0_2 (_ bv64 32))) ) (= conf_0_3 conf_0!) ) (= x_3 x!) ) (= y_3 y!) ) (= n n_0) ) (= n! n_0) ) ) )(inv-f conf_0! n! x! y! conf_0_0! conf_0_1! conf_0_2! conf_0_3! n_0! x_0! x_1! x_2! x_3! y_0! y_1! y_2! y_3! )))
(constraint (=> (inv-f conf_0 n x y conf_0_0 conf_0_1 conf_0_2 conf_0_3 n_0 x_0 x_1 x_2 x_3 y_0 y_1 y_2 y_3 )(or (not (and (and (and (= conf_0 conf_0_1) (= n n_0) ) (= x x_2) ) (= y y_2) )) (not (and (not (bvugt x_2 (_ bv0 32))) (not (= n_0 (bvadd x_2 y_2))) )) )))
(check-synth)

